9 9
27 16
6 6 2 4
9 11 2 3
15 14 3 2
11 19 3 4
17 1 1 3
8 5 1 2
19 1 2 5
0 15 1 3
6 14 1 1
5 8 1 1
11 3 2 2
1 0 2 3
6 8 1 1
10 2 3 1
6 5 2 5
8 15 2 4
19 16 3 3
16 14 3 5
4 4 1 2
19 1 2 3
13 16 2 5
19 4 1 1
15 11 2 3
12 14 2 5
11 7 3 5
3 3 2 5
1 0 2 2
